certificates/rado_a15_c151_N28.cnf
c Rad2 upper bound instance: x1 + 15*x2 - x3 = 151, interval [1,28]
p cnf 28 106
1 11 15 0
-1 -11 -15 0
1 2 10 0
-1 -2 -10 0
2 11 16 0
-2 -11 -16 0
2 3 10 0
-2 -3 -10 0
3 11 17 0
-3 -11 -17 0
3 4 10 0
-3 -4 -10 0
4 11 18 0
-4 -11 -18 0
4 5 10 0
-4 -5 -10 0
5 11 19 0
-5 -11 -19 0
5 6 10 0
-5 -6 -10 0
6 11 20 0
-6 -11 -20 0
6 7 10 0
-6 -7 -10 0
7 11 21 0
-7 -11 -21 0
7 8 10 0
-7 -8 -10 0
8 11 22 0
-8 -11 -22 0
8 9 10 0
-8 -9 -10 0
9 11 23 0
-9 -11 -23 0
9 10 0
-9 -10 0
10 11 24 0
-10 -11 -24 0
10 11 0
-10 -11 0
11 25 0
-11 -25 0
10 11 12 0
-10 -11 -12 0
11 12 26 0
-11 -12 -26 0
10 12 13 0
-10 -12 -13 0
11 13 27 0
-11 -13 -27 0
10 13 14 0
-10 -13 -14 0
11 14 28 0
-11 -14 -28 0
10 14 15 0
-10 -14 -15 0
10 15 16 0
-10 -15 -16 0
1 9 17 0
-1 -9 -17 0
10 16 17 0
-10 -16 -17 0
2 9 18 0
-2 -9 -18 0
10 17 18 0
-10 -17 -18 0
3 9 19 0
-3 -9 -19 0
10 18 19 0
-10 -18 -19 0
4 9 20 0
-4 -9 -20 0
10 19 20 0
-10 -19 -20 0
5 9 21 0
-5 -9 -21 0
10 20 21 0
-10 -20 -21 0
6 9 22 0
-6 -9 -22 0
10 21 22 0
-10 -21 -22 0
7 9 23 0
-7 -9 -23 0
10 22 23 0
-10 -22 -23 0
8 9 24 0
-8 -9 -24 0
10 23 24 0
-10 -23 -24 0
9 25 0
-9 -25 0
10 24 25 0
-10 -24 -25 0
9 10 26 0
-9 -10 -26 0
10 25 26 0
-10 -25 -26 0
9 11 27 0
-9 -11 -27 0
10 26 27 0
-10 -26 -27 0
9 12 28 0
-9 -12 -28 0
10 27 28 0
-10 -27 -28 0
