certificates/rado_a15_c151_N28.drat
-27 -28 0
d -27 -10 -28 0
-11 -28 0
-28 0
11 0
-10 0
-25 0
9 0
27 0
26 0
24 0
0
